
Gurobi 10.0.0 (win64) logging started Thu Jun 13 13:43:58 2024

Set parameter LogFile to value "C:\Users\ealvarezq\Documents\GitHub\Comillas\Models\JointResearch\05. Models\06.Benchmarking\E.Representative_days_based_on_Line_Benefits_OptModel\RTS24_mod2_ByStages_nc400/openStarNet_RTS24_mod2_ByStages_nc400.log"
Set parameter Method to value 2
Set parameter MIPFocus to value 1
Set parameter Presolve to value 2
Set parameter RINS to value 100
Set parameter MIPGap to value 0.01
Set parameter Threads to value 9
Set parameter TimeLimit to value 259200
Set parameter IterationLimit to value 760000000
Gurobi Optimizer version 10.0.0 build v10.0.0rc2 (win64)

CPU model: Intel(R) Core(TM) i7-8700 CPU @ 3.20GHz, instruction set [SSE2|AVX|AVX2]
Thread count: 6 physical cores, 12 logical processors, using up to 9 threads

Optimize a model with 142003 rows, 95724 columns and 386780 nonzeros
Model fingerprint: 0xe00d30d3
Variable types: 95703 continuous, 21 integer (21 binary)
Coefficient statistics:
  Matrix range     [1e-03, 3e+02]
  Objective range  [1e+00, 1e+00]
  Bounds range     [3e-05, 3e+00]
  RHS range        [3e-05, 3e+00]
Presolve removed 84535 rows and 48497 columns
Presolve time: 0.62s
Presolved: 57468 rows, 47227 columns, 207428 nonzeros
Variable types: 47206 continuous, 21 integer (21 binary)
Root relaxation presolved: 57468 rows, 47227 columns, 207428 nonzeros

Root barrier log...

Ordering time: 0.01s

Barrier statistics:
 Dense cols : 21
 AA' NZ     : 3.853e+05
 Factor NZ  : 1.071e+06 (roughly 50 MB of memory)
 Factor Ops : 2.386e+07 (less than 1 second per iteration)
 Threads    : 8

                  Objective                Residual
Iter       Primal          Dual         Primal    Dual     Compl     Time
   0   6.76838352e+05 -1.70679119e+08  5.43e+00 6.70e+01  3.63e+03     1s
   1   1.07278397e+05 -4.50944577e+07  7.42e-01 1.77e-08  5.17e+02     1s
   2   4.25587368e+04 -2.39358768e+07  2.04e-01 1.19e-08  2.11e+02     1s
   3   2.00807333e+04 -2.52279641e+06  8.13e-03 5.75e-09  1.93e+01     1s
   4   1.30299748e+04 -3.07936643e+05  3.64e-04 6.30e-10  2.40e+00     1s
   5   4.48741534e+03 -6.98777064e+04  5.32e-05 1.28e-10  5.56e-01     1s
   6   1.49358074e+03 -1.75304670e+04  5.35e-06 2.92e-11  1.42e-01     1s
   7   5.82420819e+02 -5.85001425e+03  1.13e-06 9.42e-12  4.81e-02     1s
   8   3.36781474e+02 -1.72673864e+03  3.93e-07 2.52e-12  1.54e-02     1s
   9   1.64774274e+02 -5.49687970e+02  1.07e-07 7.29e-13  5.34e-03     1s
  10   1.06408734e+02 -1.39915511e+02  4.31e-08 4.97e-13  1.84e-03     1s
  11   9.35981375e+01 -9.68429808e+01  3.25e-08 5.07e-13  1.42e-03     1s
  12   7.74681160e+01 -5.52861741e+01  2.01e-08 3.90e-13  9.92e-04     1s
  13   7.22223286e+01 -2.35896397e+01  1.64e-08 3.74e-13  7.16e-04     1s
  14   6.06075684e+01  1.34740844e+01  8.79e-09 3.33e-13  3.52e-04     1s
  15   5.88990956e+01  2.19444098e+01  7.84e-09 3.39e-13  2.76e-04     1s
  16   5.58880633e+01  2.53037815e+01  6.10e-09 7.09e-13  2.29e-04     1s
  17   5.32725783e+01  2.84113553e+01  4.55e-09 3.06e-13  1.86e-04     1s
  18   5.21055259e+01  3.12927286e+01  3.85e-09 3.63e-13  1.56e-04     2s
  19   4.98356389e+01  3.72148461e+01  2.49e-09 5.24e-13  9.43e-05     2s
  20   4.86858060e+01  3.90153426e+01  1.82e-09 2.54e-13  7.23e-05     2s
  21   4.83257211e+01  4.02922582e+01  1.60e-09 5.56e-13  6.00e-05     2s
  22   4.79485740e+01  4.09811367e+01  1.39e-09 4.99e-13  5.21e-05     2s
  23   4.74852008e+01  4.23417801e+01  1.14e-09 3.34e-13  3.84e-05     2s
  24   4.72589575e+01  4.28098054e+01  1.01e-09 4.70e-13  3.32e-05     2s
  25   4.70302603e+01  4.29629238e+01  8.79e-10 6.62e-13  3.04e-05     2s
  26   4.66586023e+01  4.38243980e+01  6.50e-10 3.61e-13  2.12e-05     2s
  27   4.63306788e+01  4.43505442e+01  4.56e-10 3.76e-13  1.48e-05     2s
  28   4.61316215e+01  4.48191474e+01  3.22e-10 3.08e-13  9.81e-06     2s
  29   4.59301817e+01  4.49607070e+01  1.90e-10 3.36e-13  7.24e-06     2s
  30   4.57852829e+01  4.51431266e+01  8.29e-11 3.85e-13  4.80e-06     2s
  31   4.57113359e+01  4.52987061e+01  7.21e-11 3.76e-13  3.08e-06     2s
  32   4.56798111e+01  4.54336673e+01  9.30e-11 2.90e-13  1.84e-06     2s
  33   4.56644802e+01  4.55216718e+01  4.58e-11 3.20e-13  1.07e-06     2s
  34   4.56599187e+01  4.55768256e+01  3.06e-11 3.36e-13  6.21e-07     2s
  35   4.56551882e+01  4.56222020e+01  7.24e-11 2.62e-13  2.46e-07     2s
  36   4.56531936e+01  4.56392890e+01  3.37e-11 2.52e-13  1.04e-07     2s
  37   4.56519880e+01  4.56476687e+01  3.40e-11 3.35e-13  3.23e-08     2s
  38   4.56516737e+01  4.56504371e+01  7.05e-10 6.79e-13  9.24e-09     2s
  39   4.56514264e+01  4.56510265e+01  5.57e-10 3.19e-13  2.99e-09     2s
  40   4.56513819e+01  4.56512072e+01  9.28e-10 5.34e-12  1.30e-09     2s
  41   4.56513798e+01  4.56512609e+01  8.87e-10 3.61e-12  8.89e-10     2s
  42   4.56513547e+01  4.56513317e+01  9.46e-10 2.01e-11  1.72e-10     2s
  43   4.56513480e+01  4.56513466e+01  1.27e-09 4.24e-13  1.06e-11     2s
  44   4.56513469e+01  4.56513467e+01  3.09e-08 3.95e-13  1.33e-12     2s

Barrier solved model in 44 iterations and 2.23 seconds (1.91 work units)
Optimal objective 4.56513469e+01


Root relaxation: objective 4.565135e+01, 8556 iterations, 2.01 seconds (1.83 work units)

    Nodes    |    Current Node    |     Objective Bounds      |     Work
 Expl Unexpl |  Obj  Depth IntInf | Incumbent    BestBd   Gap | It/Node Time

     0     0   45.65135    0   18          -   45.65135      -     -    4s
H    0     0                      84.8611733   45.65135  46.2%     -    6s
H    0     0                      76.8498413   46.76330  39.1%     -   10s
     0     0   46.76330    0   12   76.84984   46.76330  39.1%     -   10s
     0     0   46.84985    0   13   76.84984   46.84985  39.0%     -   13s
     0     0   46.86238    0   15   76.84984   46.86238  39.0%     -   13s
     0     0   46.86343    0   15   76.84984   46.86343  39.0%     -   14s
     0     0   46.87961    0   15   76.84984   46.87961  39.0%     -   14s
     0     0   46.88200    0   16   76.84984   46.88200  39.0%     -   15s
     0     0   46.88200    0   16   76.84984   46.88200  39.0%     -   15s
     0     0   47.04336    0   18   76.84984   47.04336  38.8%     -   17s
     0     0   47.06778    0   16   76.84984   47.06778  38.8%     -   19s
     0     0   47.06948    0   16   76.84984   47.06948  38.8%     -   19s
     0     0   47.07009    0   16   76.84984   47.07009  38.8%     -   19s
     0     0   47.07043    0   16   76.84984   47.07043  38.8%     -   19s
     0     0   47.07066    0   16   76.84984   47.07066  38.7%     -   19s
     0     0   47.07262    0   16   76.84984   47.07262  38.7%     -   20s
     0     0   47.07266    0   16   76.84984   47.07266  38.7%     -   20s
H    0     0                      72.0197462   47.07266  34.6%     -   21s
     0     0   47.09893    0   12   72.01975   47.09893  34.6%     -   22s
     0     0   47.10817    0   12   72.01975   47.10817  34.6%     -   23s
     0     0   47.10819    0   12   72.01975   47.10819  34.6%     -   23s
     0     0   47.18866    0   11   72.01975   47.18866  34.5%     -   25s
     0     0   47.22125    0   12   72.01975   47.22125  34.4%     -   26s
     0     0   47.23083    0   12   72.01975   47.23083  34.4%     -   26s
     0     0   47.23165    0   12   72.01975   47.23165  34.4%     -   27s
     0     0   47.23248    0   12   72.01975   47.23248  34.4%     -   27s
     0     0   47.23329    0   12   72.01975   47.23329  34.4%     -   27s
     0     0   47.24335    0   12   72.01975   47.24335  34.4%     -   27s
     0     0   47.24422    0   12   72.01975   47.24422  34.4%     -   28s
     0     0   47.24455    0   12   72.01975   47.24455  34.4%     -   28s
     0     0   47.24737    0   11   72.01975   47.24737  34.4%     -   32s
H    0     0                      63.2266364   47.24737  25.3%     -   37s
     0     2   47.24737    0   11   63.22664   47.24737  25.3%     -   96s
     3     8   48.20190    2   14   63.22664   47.35270  25.1%  5280  102s
     7    16   48.41144    3   15   63.22664   48.21451  23.7%  4486  107s
    15    25   48.50048    4   14   63.22664   48.44354  23.4%  3967  112s
    24    34   48.56851    5   14   63.22664   48.51299  23.3%  3758  129s
    33    42   50.70564    6   13   63.22664   48.51299  23.3%  4760  134s
    42    49   50.52444    6   13   63.22664   48.51299  23.3%  4397  137s
    51    52   52.25405    7   13   63.22664   48.51299  23.3%  4092  145s
    62    56   53.48245    7   13   63.22664   48.51299  23.3%  3757  151s
    72    63     cutoff    8        63.22664   48.51299  23.3%  3674  170s
    81    71     cutoff    8        63.22664   48.51299  23.3%  3647  175s
    91    74     cutoff   11        63.22664   48.51299  23.3%  3558  209s
   102    85   55.49996   10   10   63.22664   48.51299  23.3%  3457  215s
   115    95   59.67713   12    8   63.22664   48.51299  23.3%  3361  220s
   131   105   60.58927   14    6   63.22664   48.51299  23.3%  3158  225s
   149   112   62.53105   17    3   63.22664   48.51299  23.3%  2989  231s
   170   115     cutoff   20        63.22664   50.17362  20.6%  2834  237s
   195   119   56.19956    6   13   63.22664   50.17362  20.6%  2681  243s
   215   133   55.38398    6   14   63.22664   50.17362  20.6%  2648  249s
   239   135   56.26184    7   13   63.22664   50.17362  20.6%  2507  257s
   261   139   59.82321    9   11   63.22664   50.17362  20.6%  2492  265s
   277   141   62.44358    9   11   63.22664   50.17362  20.6%  2513  273s
   301   142   62.28689   10   10   63.22664   50.17362  20.6%  2439  283s
   328   143     cutoff   11        63.22664   50.94965  19.4%  2412  290s
   354   152   52.30957    7   13   63.22664   50.95469  19.4%  2388  298s
   379   157   53.44126    8   12   63.22664   50.95469  19.4%  2364  306s
   406   160   57.55127   10   10   63.22664   50.95469  19.4%  2352  316s
   425   158   62.11001   13    7   63.22664   52.17515  17.5%  2377  327s
   459   163   54.62913    8   12   63.22664   52.17515  17.5%  2350  337s
   493   180   58.55572   10   10   63.22664   52.17515  17.5%  2326  346s
   530   179   60.60353   12    8   63.22664   52.17515  17.5%  2265  359s
   585   191     cutoff   17        63.22664   53.82701  14.9%  2179  370s
   615   196   59.22314   10   10   63.22664   53.82701  14.9%  2189  384s
   658   188     cutoff   12        63.22664   53.82701  14.9%  2150  396s
   702   194     cutoff    9        63.22664   54.54264  13.7%  2119  410s
   730   208   59.94456    7    9   63.22664   54.89244  13.2%  2151  424s
   784   196   63.01807    8   10   63.22664   56.20554  11.1%  2106  439s
   838   198     cutoff   10        63.22664   56.49024  10.7%  2071  453s
   878   202   60.56683    8   12   63.22664   56.49024  10.7%  2074  486s
   896   215   62.50036    9   11   63.22664   56.88517  10.0%  2067  521s
   951   222   59.00274    5    7   63.22664   57.23246  9.48%  2035  538s
  1020   244   62.79019   11    8   63.22664   57.49386  9.07%  1995  555s
  1115   251   61.21861   12    8   63.22664   57.83743  8.52%  1923  572s
  1195   255   60.64860   14    6   63.22664   58.27698  7.83%  1885  758s
  1271   258     cutoff   10        63.22664   58.35124  7.71%  1850  779s
  1358   260   63.09368   13    7   63.22664   58.71430  7.14%  1829  802s
  1472   290   63.17986   11    8   63.22664   58.91656  6.82%  1782  825s
  1585   274     cutoff   11        63.22664   59.29278  6.22%  1737  935s
  1700   261     cutoff   11        63.22664   59.65283  5.65%  1696 1031s
  1797   241     cutoff   13        63.22664   59.68535  5.60%  1675 1180s
  1904   197   61.49214   15    5   63.22664   60.14901  4.87%  1641 1216s
  2116   121   62.70540   13    7   63.22664   60.84324  3.77%  1571 1248s
  2309     0     cutoff   12        63.22664   61.23838  3.14%  1516 1270s

Cutting planes:
  Implied bound: 283
  MIR: 1797
  Relax-and-lift: 211

Explored 2525 nodes (3662381 simplex iterations) in 1270.54 seconds (2111.19 work units)
Thread count was 9 (of 12 available processors)

Solution count 4: 63.2266 72.0197 76.8498 84.8612 

Optimal solution found (tolerance 1.00e-02)
Best objective 6.322663638921e+01, best bound 6.322663638921e+01, gap 0.0000%

Gurobi 10.0.0 (win64) logging started Thu Jun 13 14:07:06 2024

Set parameter LogFile to value "C:\Users\ealvarezq\Documents\GitHub\Comillas\Models\JointResearch\05. Models\06.Benchmarking\E.Representative_days_based_on_Line_Benefits_OptModel\RTS24_mod2_ByStages_nc400/openStarNet_RTS24_mod2_ByStages_nc400.log"
Set parameter Method to value 2
Set parameter MIPFocus to value 1
Set parameter Presolve to value 2
Set parameter RINS to value 100
Set parameter MIPGap to value 0.01
Set parameter Threads to value 9
Set parameter TimeLimit to value 259200
Set parameter IterationLimit to value 760000000
Gurobi Optimizer version 10.0.0 build v10.0.0rc2 (win64)

CPU model: Intel(R) Core(TM) i7-8700 CPU @ 3.20GHz, instruction set [SSE2|AVX|AVX2]
Thread count: 6 physical cores, 12 logical processors, using up to 9 threads

Optimize a model with 142003 rows, 95703 columns and 353159 nonzeros
Model fingerprint: 0xd34cc0d2
Coefficient statistics:
  Matrix range     [1e-03, 3e+02]
  Objective range  [1e+00, 1e+00]
  Bounds range     [3e-05, 3e+00]
  RHS range        [3e-05, 2e+01]
Presolve removed 119608 rows and 55402 columns
Presolve time: 0.18s
Presolved: 22395 rows, 41091 columns, 101130 nonzeros

Ordering time: 0.00s

Barrier statistics:
 AA' NZ     : 5.873e+04
 Factor NZ  : 2.203e+05 (roughly 22 MB of memory)
 Factor Ops : 3.219e+06 (less than 1 second per iteration)
 Threads    : 9

                  Objective                Residual
Iter       Primal          Dual         Primal    Dual     Compl     Time
   0   7.60158908e+06 -1.21014657e+08  6.58e+01 1.63e+02  3.26e+04     0s
   1   4.38707506e+05 -9.19984909e+07  3.46e+00 3.18e-12  2.76e+03     0s
   2   7.30617947e+04 -1.99180314e+07  4.93e-01 6.82e-12  4.02e+02     0s
   3   3.08851329e+04 -5.13042631e+06  9.18e-02 2.50e-12  8.43e+01     0s
   4   2.00473477e+04 -7.92132641e+05  6.47e-03 2.84e-12  1.16e+01     0s
   5   1.15805037e+04 -2.23631615e+05  3.79e-04 1.82e-12  3.27e+00     0s
   6   4.34065164e+03 -4.74453712e+04  4.01e-05 2.27e-12  7.20e-01     0s
   7   1.48458055e+03 -1.09211443e+04  2.76e-06 5.68e-13  1.72e-01     0s
   8   6.98076878e+02 -2.88211024e+03  6.32e-07 5.90e-13  4.98e-02     0s
   9   3.41345514e+02 -6.54097175e+02  1.76e-07 5.19e-13  1.38e-02     0s
  10   1.51810819e+02 -6.22326293e+01  4.71e-08 7.16e-13  2.98e-03     0s
  11   9.75226293e+01  2.51935830e+01  1.61e-08 4.13e-13  1.01e-03     0s
  12   7.87372286e+01  4.84733134e+01  6.80e-09 6.89e-13  4.21e-04     0s
  13   7.07657770e+01  5.71419050e+01  3.20e-09 6.38e-13  1.89e-04     0s
  14   6.67137648e+01  6.05184254e+01  1.44e-09 6.46e-13  8.61e-05     0s
  15   6.47076708e+01  6.19935668e+01  5.92e-10 5.55e-13  3.77e-05     0s
  16   6.37612463e+01  6.29420094e+01  2.12e-10 4.52e-13  1.14e-05     0s
  17   6.34033571e+01  6.31355127e+01  4.31e-10 8.58e-13  3.72e-06     0s
  18   6.32455165e+01  6.32174616e+01  4.27e-10 5.93e-13  3.90e-07     0s
  19   6.32279396e+01  6.32254849e+01  1.17e-09 7.31e-13  3.41e-08     0s
  20   6.32266588e+01  6.32265195e+01  2.63e-10 8.63e-13  1.94e-09     0s
  21   6.32266369e+01  6.32266355e+01  2.78e-10 5.76e-13  1.98e-11     0s
  22   6.32266364e+01  6.32266364e+01  1.46e-10 4.60e-13  3.63e-17     0s

Barrier solved model in 22 iterations and 0.49 seconds (0.47 work units)
Optimal objective 6.32266364e+01

Crossover log...

    4918 DPushes remaining with DInf 0.0000000e+00                 1s
       0 DPushes remaining with DInf 0.0000000e+00                 1s

    1459 PPushes remaining with PInf 0.0000000e+00                 1s
       0 PPushes remaining with PInf 0.0000000e+00                 1s

  Push phase complete: Pinf 0.0000000e+00, Dinf 1.9709953e-13      1s

Iteration    Objective       Primal Inf.    Dual Inf.      Time
    1678    6.3226636e+01   0.000000e+00   0.000000e+00      1s

Use crossover to convert LP symmetric solution to basic solution...
Crossover log...

       0 DPushes remaining with DInf 0.0000000e+00                 1s

     930 PPushes remaining with PInf 0.0000000e+00                 1s
       0 PPushes remaining with PInf 0.0000000e+00                 1s

  Push phase complete: Pinf 0.0000000e+00, Dinf 1.2779067e-13      1s

Iteration    Objective       Primal Inf.    Dual Inf.      Time
    2727    6.3226636e+01   0.000000e+00   0.000000e+00      1s

Solved in 2727 iterations and 0.77 seconds (0.63 work units)
Optimal objective  6.322663639e+01
